letting n =  10
letting blocks =  [[1, 3], [2, 4], [3, 1], [3, 3], [3, 4], [3, 10], [4, 3], [4, 6], [4, 9], [4, 10], [5, 2], [5, 3], [5, 5], [5, 6], [6, 6], [7, 4], [7, 7], [8, 8], [8, 10], [9, 1], [9, 9], [10, 5]]
